NAME: random_40_0
TYPE: TSP
COMMENT: random_40_0
DIMENSION: 40
EDGE_WEIGHT_TYPE: EUC_2D
NODE_COORD_SECTION
1 247 310
2 255 28
3 482 462
4 441 329
5 413 369
6 417 356
7 110 178
8 198 49
9 229 408
10 181 103
11 225 88
12 265 39
13 95 385
14 75 177
15 301 41
16 166 322
17 144 177
18 378 177
19 193 400
20 311 2
21 221 278
22 22 234
23 103 30
24 181 156
25 263 356
26 133 87
27 0 139
28 422 143
29 82 431
30 152 339
31 119 257
32 137 32
33 492 359
34 294 9
35 275 464
36 326 451
37 496 365
38 305 294
39 447 318
40 317 435
